c === Helltaker SAT solver === 
c
p cnf 154 1722 
65 0 
68 0 
71 0 
74 0 
78 0 
82 0 
1 2 3 4 5 6 7 8 9 10 11 12 13 14 15 16 0 
17 18 19 20 21 22 23 24 25 26 27 28 29 30 31 32 0 
33 34 35 36 37 38 39 40 41 42 43 44 45 46 47 48 0 
49 50 51 52 53 54 55 56 57 58 59 60 61 62 63 64 0 
-1 -2 0 
-1 -3 0 
-1 -4 0 
-1 -5 0 
-1 -6 0 
-1 -7 0 
-1 -8 0 
-1 -9 0 
-1 -10 0 
-1 -11 0 
-1 -12 0 
-1 -13 0 
-1 -14 0 
-1 -15 0 
-1 -16 0 
-2 -3 0 
-2 -4 0 
-2 -5 0 
-2 -6 0 
-2 -7 0 
-2 -8 0 
-2 -9 0 
-2 -10 0 
-2 -11 0 
-2 -12 0 
-2 -13 0 
-2 -14 0 
-2 -15 0 
-2 -16 0 
-3 -4 0 
-3 -5 0 
-3 -6 0 
-3 -7 0 
-3 -8 0 
-3 -9 0 
-3 -10 0 
-3 -11 0 
-3 -12 0 
-3 -13 0 
-3 -14 0 
-3 -15 0 
-3 -16 0 
-4 -5 0 
-4 -6 0 
-4 -7 0 
-4 -8 0 
-4 -9 0 
-4 -10 0 
-4 -11 0 
-4 -12 0 
-4 -13 0 
-4 -14 0 
-4 -15 0 
-4 -16 0 
-5 -6 0 
-5 -7 0 
-5 -8 0 
-5 -9 0 
-5 -10 0 
-5 -11 0 
-5 -12 0 
-5 -13 0 
-5 -14 0 
-5 -15 0 
-5 -16 0 
-6 -7 0 
-6 -8 0 
-6 -9 0 
-6 -10 0 
-6 -11 0 
-6 -12 0 
-6 -13 0 
-6 -14 0 
-6 -15 0 
-6 -16 0 
-7 -8 0 
-7 -9 0 
-7 -10 0 
-7 -11 0 
-7 -12 0 
-7 -13 0 
-7 -14 0 
-7 -15 0 
-7 -16 0 
-8 -9 0 
-8 -10 0 
-8 -11 0 
-8 -12 0 
-8 -13 0 
-8 -14 0 
-8 -15 0 
-8 -16 0 
-9 -10 0 
-9 -11 0 
-9 -12 0 
-9 -13 0 
-9 -14 0 
-9 -15 0 
-9 -16 0 
-10 -11 0 
-10 -12 0 
-10 -13 0 
-10 -14 0 
-10 -15 0 
-10 -16 0 
-11 -12 0 
-11 -13 0 
-11 -14 0 
-11 -15 0 
-11 -16 0 
-12 -13 0 
-12 -14 0 
-12 -15 0 
-12 -16 0 
-13 -14 0 
-13 -15 0 
-13 -16 0 
-14 -15 0 
-14 -16 0 
-15 -16 0 
-17 -18 0 
-17 -19 0 
-17 -20 0 
-17 -21 0 
-17 -22 0 
-17 -23 0 
-17 -24 0 
-17 -25 0 
-17 -26 0 
-17 -27 0 
-17 -28 0 
-17 -29 0 
-17 -30 0 
-17 -31 0 
-17 -32 0 
-18 -19 0 
-18 -20 0 
-18 -21 0 
-18 -22 0 
-18 -23 0 
-18 -24 0 
-18 -25 0 
-18 -26 0 
-18 -27 0 
-18 -28 0 
-18 -29 0 
-18 -30 0 
-18 -31 0 
-18 -32 0 
-19 -20 0 
-19 -21 0 
-19 -22 0 
-19 -23 0 
-19 -24 0 
-19 -25 0 
-19 -26 0 
-19 -27 0 
-19 -28 0 
-19 -29 0 
-19 -30 0 
-19 -31 0 
-19 -32 0 
-20 -21 0 
-20 -22 0 
-20 -23 0 
-20 -24 0 
-20 -25 0 
-20 -26 0 
-20 -27 0 
-20 -28 0 
-20 -29 0 
-20 -30 0 
-20 -31 0 
-20 -32 0 
-21 -22 0 
-21 -23 0 
-21 -24 0 
-21 -25 0 
-21 -26 0 
-21 -27 0 
-21 -28 0 
-21 -29 0 
-21 -30 0 
-21 -31 0 
-21 -32 0 
-22 -23 0 
-22 -24 0 
-22 -25 0 
-22 -26 0 
-22 -27 0 
-22 -28 0 
-22 -29 0 
-22 -30 0 
-22 -31 0 
-22 -32 0 
-23 -24 0 
-23 -25 0 
-23 -26 0 
-23 -27 0 
-23 -28 0 
-23 -29 0 
-23 -30 0 
-23 -31 0 
-23 -32 0 
-24 -25 0 
-24 -26 0 
-24 -27 0 
-24 -28 0 
-24 -29 0 
-24 -30 0 
-24 -31 0 
-24 -32 0 
-25 -26 0 
-25 -27 0 
-25 -28 0 
-25 -29 0 
-25 -30 0 
-25 -31 0 
-25 -32 0 
-26 -27 0 
-26 -28 0 
-26 -29 0 
-26 -30 0 
-26 -31 0 
-26 -32 0 
-27 -28 0 
-27 -29 0 
-27 -30 0 
-27 -31 0 
-27 -32 0 
-28 -29 0 
-28 -30 0 
-28 -31 0 
-28 -32 0 
-29 -30 0 
-29 -31 0 
-29 -32 0 
-30 -31 0 
-30 -32 0 
-31 -32 0 
-33 -34 0 
-33 -35 0 
-33 -36 0 
-33 -37 0 
-33 -38 0 
-33 -39 0 
-33 -40 0 
-33 -41 0 
-33 -42 0 
-33 -43 0 
-33 -44 0 
-33 -45 0 
-33 -46 0 
-33 -47 0 
-33 -48 0 
-34 -35 0 
-34 -36 0 
-34 -37 0 
-34 -38 0 
-34 -39 0 
-34 -40 0 
-34 -41 0 
-34 -42 0 
-34 -43 0 
-34 -44 0 
-34 -45 0 
-34 -46 0 
-34 -47 0 
-34 -48 0 
-35 -36 0 
-35 -37 0 
-35 -38 0 
-35 -39 0 
-35 -40 0 
-35 -41 0 
-35 -42 0 
-35 -43 0 
-35 -44 0 
-35 -45 0 
-35 -46 0 
-35 -47 0 
-35 -48 0 
-36 -37 0 
-36 -38 0 
-36 -39 0 
-36 -40 0 
-36 -41 0 
-36 -42 0 
-36 -43 0 
-36 -44 0 
-36 -45 0 
-36 -46 0 
-36 -47 0 
-36 -48 0 
-37 -38 0 
-37 -39 0 
-37 -40 0 
-37 -41 0 
-37 -42 0 
-37 -43 0 
-37 -44 0 
-37 -45 0 
-37 -46 0 
-37 -47 0 
-37 -48 0 
-38 -39 0 
-38 -40 0 
-38 -41 0 
-38 -42 0 
-38 -43 0 
-38 -44 0 
-38 -45 0 
-38 -46 0 
-38 -47 0 
-38 -48 0 
-39 -40 0 
-39 -41 0 
-39 -42 0 
-39 -43 0 
-39 -44 0 
-39 -45 0 
-39 -46 0 
-39 -47 0 
-39 -48 0 
-40 -41 0 
-40 -42 0 
-40 -43 0 
-40 -44 0 
-40 -45 0 
-40 -46 0 
-40 -47 0 
-40 -48 0 
-41 -42 0 
-41 -43 0 
-41 -44 0 
-41 -45 0 
-41 -46 0 
-41 -47 0 
-41 -48 0 
-42 -43 0 
-42 -44 0 
-42 -45 0 
-42 -46 0 
-42 -47 0 
-42 -48 0 
-43 -44 0 
-43 -45 0 
-43 -46 0 
-43 -47 0 
-43 -48 0 
-44 -45 0 
-44 -46 0 
-44 -47 0 
-44 -48 0 
-45 -46 0 
-45 -47 0 
-45 -48 0 
-46 -47 0 
-46 -48 0 
-47 -48 0 
-49 -50 0 
-49 -51 0 
-49 -52 0 
-49 -53 0 
-49 -54 0 
-49 -55 0 
-49 -56 0 
-49 -57 0 
-49 -58 0 
-49 -59 0 
-49 -60 0 
-49 -61 0 
-49 -62 0 
-49 -63 0 
-49 -64 0 
-50 -51 0 
-50 -52 0 
-50 -53 0 
-50 -54 0 
-50 -55 0 
-50 -56 0 
-50 -57 0 
-50 -58 0 
-50 -59 0 
-50 -60 0 
-50 -61 0 
-50 -62 0 
-50 -63 0 
-50 -64 0 
-51 -52 0 
-51 -53 0 
-51 -54 0 
-51 -55 0 
-51 -56 0 
-51 -57 0 
-51 -58 0 
-51 -59 0 
-51 -60 0 
-51 -61 0 
-51 -62 0 
-51 -63 0 
-51 -64 0 
-52 -53 0 
-52 -54 0 
-52 -55 0 
-52 -56 0 
-52 -57 0 
-52 -58 0 
-52 -59 0 
-52 -60 0 
-52 -61 0 
-52 -62 0 
-52 -63 0 
-52 -64 0 
-53 -54 0 
-53 -55 0 
-53 -56 0 
-53 -57 0 
-53 -58 0 
-53 -59 0 
-53 -60 0 
-53 -61 0 
-53 -62 0 
-53 -63 0 
-53 -64 0 
-54 -55 0 
-54 -56 0 
-54 -57 0 
-54 -58 0 
-54 -59 0 
-54 -60 0 
-54 -61 0 
-54 -62 0 
-54 -63 0 
-54 -64 0 
-55 -56 0 
-55 -57 0 
-55 -58 0 
-55 -59 0 
-55 -60 0 
-55 -61 0 
-55 -62 0 
-55 -63 0 
-55 -64 0 
-56 -57 0 
-56 -58 0 
-56 -59 0 
-56 -60 0 
-56 -61 0 
-56 -62 0 
-56 -63 0 
-56 -64 0 
-57 -58 0 
-57 -59 0 
-57 -60 0 
-57 -61 0 
-57 -62 0 
-57 -63 0 
-57 -64 0 
-58 -59 0 
-58 -60 0 
-58 -61 0 
-58 -62 0 
-58 -63 0 
-58 -64 0 
-59 -60 0 
-59 -61 0 
-59 -62 0 
-59 -63 0 
-59 -64 0 
-60 -61 0 
-60 -62 0 
-60 -63 0 
-60 -64 0 
-61 -62 0 
-61 -63 0 
-61 -64 0 
-62 -63 0 
-62 -64 0 
-63 -64 0 
3 69 96 77 0 
3 72 87 68 0 
3 75 90 71 0 
3 78 84 65 0 
3 81 93 74 0 
19 87 114 95 0 
19 90 105 86 0 
19 93 108 89 0 
19 96 102 83 0 
19 99 111 92 0 
35 105 132 113 0 
35 108 123 104 0 
35 111 126 107 0 
35 114 120 101 0 
35 117 129 110 0 
51 123 150 131 0 
51 126 141 122 0 
51 129 144 125 0 
51 132 138 119 0 
51 135 147 128 0 
4 67 97 77 0 
4 70 91 71 0 
4 73 94 74 0 
4 76 100 80 0 
4 79 88 68 0 
20 85 115 95 0 
20 88 109 89 0 
20 91 112 92 0 
20 94 118 98 0 
20 97 106 86 0 
36 103 133 113 0 
36 106 127 107 0 
36 109 130 110 0 
36 112 136 116 0 
36 115 124 104 0 
52 121 151 131 0 
52 124 145 125 0 
52 127 148 128 0 
52 130 154 134 0 
52 133 142 122 0 
65 83 1 0 
65 83 2 0 
65 83 3 0 
65 83 4 0 
65 83 5 0 
65 83 6 0 
65 83 7 0 
65 83 8 0 
65 83 9 0 
65 83 10 0 
65 83 11 0 
65 83 12 0 
65 83 13 0 
65 83 14 0 
65 83 15 0 
65 83 16 0 
66 84 1 0 
66 84 2 0 
66 84 3 0 
66 84 4 0 
66 84 5 0 
66 84 6 0 
66 84 7 0 
66 84 8 0 
66 84 9 0 
66 84 10 0 
66 84 11 0 
66 84 12 0 
66 84 13 0 
66 84 14 0 
66 84 15 0 
66 84 16 0 
67 85 1 0 
67 85 2 0 
67 85 3 0 
67 85 4 0 
67 85 5 0 
67 85 6 0 
67 85 7 0 
67 85 8 0 
67 85 9 0 
67 85 10 0 
67 85 11 0 
67 85 12 0 
67 85 13 0 
67 85 14 0 
67 85 15 0 
67 85 16 0 
68 86 1 0 
68 86 2 0 
68 86 3 0 
68 86 4 0 
68 86 5 0 
68 86 6 0 
68 86 7 0 
68 86 8 0 
68 86 9 0 
68 86 10 0 
68 86 11 0 
68 86 12 0 
68 86 13 0 
68 86 14 0 
68 86 15 0 
68 86 16 0 
69 87 1 0 
69 87 2 0 
69 87 3 0 
69 87 4 0 
69 87 5 0 
69 87 6 0 
69 87 7 0 
69 87 8 0 
69 87 9 0 
69 87 10 0 
69 87 11 0 
69 87 12 0 
69 87 13 0 
69 87 14 0 
69 87 15 0 
69 87 16 0 
70 88 1 0 
70 88 2 0 
70 88 3 0 
70 88 4 0 
70 88 5 0 
70 88 6 0 
70 88 7 0 
70 88 8 0 
70 88 9 0 
70 88 10 0 
70 88 11 0 
70 88 12 0 
70 88 13 0 
70 88 14 0 
70 88 15 0 
70 88 16 0 
71 89 1 0 
71 89 2 0 
71 89 3 0 
71 89 4 0 
71 89 5 0 
71 89 6 0 
71 89 7 0 
71 89 8 0 
71 89 9 0 
71 89 10 0 
71 89 11 0 
71 89 12 0 
71 89 13 0 
71 89 14 0 
71 89 15 0 
71 89 16 0 
72 90 1 0 
72 90 2 0 
72 90 3 0 
72 90 4 0 
72 90 5 0 
72 90 6 0 
72 90 7 0 
72 90 8 0 
72 90 9 0 
72 90 10 0 
72 90 11 0 
72 90 12 0 
72 90 13 0 
72 90 14 0 
72 90 15 0 
72 90 16 0 
73 91 1 0 
73 91 2 0 
73 91 3 0 
73 91 4 0 
73 91 5 0 
73 91 6 0 
73 91 7 0 
73 91 8 0 
73 91 9 0 
73 91 10 0 
73 91 11 0 
73 91 12 0 
73 91 13 0 
73 91 14 0 
73 91 15 0 
73 91 16 0 
74 92 1 0 
74 92 2 0 
74 92 3 0 
74 92 4 0 
74 92 5 0 
74 92 6 0 
74 92 7 0 
74 92 8 0 
74 92 9 0 
74 92 10 0 
74 92 11 0 
74 92 12 0 
74 92 13 0 
74 92 14 0 
74 92 15 0 
74 92 16 0 
75 93 1 0 
75 93 2 0 
75 93 3 0 
75 93 4 0 
75 93 5 0 
75 93 6 0 
75 93 7 0 
75 93 8 0 
75 93 9 0 
75 93 10 0 
75 93 11 0 
75 93 12 0 
75 93 13 0 
75 93 14 0 
75 93 15 0 
75 93 16 0 
76 94 1 0 
76 94 2 0 
76 94 3 0 
76 94 4 0 
76 94 5 0 
76 94 6 0 
76 94 7 0 
76 94 8 0 
76 94 9 0 
76 94 10 0 
76 94 11 0 
76 94 12 0 
76 94 13 0 
76 94 14 0 
76 94 15 0 
76 94 16 0 
77 95 1 0 
77 95 2 0 
77 95 3 0 
77 95 4 0 
77 95 5 0 
77 95 6 0 
77 95 7 0 
77 95 8 0 
77 95 9 0 
77 95 10 0 
77 95 11 0 
77 95 12 0 
77 95 13 0 
77 95 14 0 
77 95 15 0 
77 95 16 0 
78 96 1 0 
78 96 2 0 
78 96 3 0 
78 96 4 0 
78 96 5 0 
78 96 6 0 
78 96 7 0 
78 96 8 0 
78 96 9 0 
78 96 10 0 
78 96 11 0 
78 96 12 0 
78 96 13 0 
78 96 14 0 
78 96 15 0 
78 96 16 0 
79 97 1 0 
79 97 2 0 
79 97 3 0 
79 97 4 0 
79 97 5 0 
79 97 6 0 
79 97 7 0 
79 97 8 0 
79 97 9 0 
79 97 10 0 
79 97 11 0 
79 97 12 0 
79 97 13 0 
79 97 14 0 
79 97 15 0 
79 97 16 0 
80 98 1 0 
80 98 2 0 
80 98 3 0 
80 98 4 0 
80 98 5 0 
80 98 6 0 
80 98 7 0 
80 98 8 0 
80 98 9 0 
80 98 10 0 
80 98 11 0 
80 98 12 0 
80 98 13 0 
80 98 14 0 
80 98 15 0 
80 98 16 0 
81 99 1 0 
81 99 2 0 
81 99 3 0 
81 99 4 0 
81 99 5 0 
81 99 6 0 
81 99 7 0 
81 99 8 0 
81 99 9 0 
81 99 10 0 
81 99 11 0 
81 99 12 0 
81 99 13 0 
81 99 14 0 
81 99 15 0 
81 99 16 0 
82 100 1 0 
82 100 2 0 
82 100 3 0 
82 100 4 0 
82 100 5 0 
82 100 6 0 
82 100 7 0 
82 100 8 0 
82 100 9 0 
82 100 10 0 
82 100 11 0 
82 100 12 0 
82 100 13 0 
82 100 14 0 
82 100 15 0 
82 100 16 0 
83 101 17 0 
83 101 18 0 
83 101 19 0 
83 101 20 0 
83 101 21 0 
83 101 22 0 
83 101 23 0 
83 101 24 0 
83 101 25 0 
83 101 26 0 
83 101 27 0 
83 101 28 0 
83 101 29 0 
83 101 30 0 
83 101 31 0 
83 101 32 0 
84 102 17 0 
84 102 18 0 
84 102 19 0 
84 102 20 0 
84 102 21 0 
84 102 22 0 
84 102 23 0 
84 102 24 0 
84 102 25 0 
84 102 26 0 
84 102 27 0 
84 102 28 0 
84 102 29 0 
84 102 30 0 
84 102 31 0 
84 102 32 0 
85 103 17 0 
85 103 18 0 
85 103 19 0 
85 103 20 0 
85 103 21 0 
85 103 22 0 
85 103 23 0 
85 103 24 0 
85 103 25 0 
85 103 26 0 
85 103 27 0 
85 103 28 0 
85 103 29 0 
85 103 30 0 
85 103 31 0 
85 103 32 0 
86 104 17 0 
86 104 18 0 
86 104 19 0 
86 104 20 0 
86 104 21 0 
86 104 22 0 
86 104 23 0 
86 104 24 0 
86 104 25 0 
86 104 26 0 
86 104 27 0 
86 104 28 0 
86 104 29 0 
86 104 30 0 
86 104 31 0 
86 104 32 0 
87 105 17 0 
87 105 18 0 
87 105 19 0 
87 105 20 0 
87 105 21 0 
87 105 22 0 
87 105 23 0 
87 105 24 0 
87 105 25 0 
87 105 26 0 
87 105 27 0 
87 105 28 0 
87 105 29 0 
87 105 30 0 
87 105 31 0 
87 105 32 0 
88 106 17 0 
88 106 18 0 
88 106 19 0 
88 106 20 0 
88 106 21 0 
88 106 22 0 
88 106 23 0 
88 106 24 0 
88 106 25 0 
88 106 26 0 
88 106 27 0 
88 106 28 0 
88 106 29 0 
88 106 30 0 
88 106 31 0 
88 106 32 0 
89 107 17 0 
89 107 18 0 
89 107 19 0 
89 107 20 0 
89 107 21 0 
89 107 22 0 
89 107 23 0 
89 107 24 0 
89 107 25 0 
89 107 26 0 
89 107 27 0 
89 107 28 0 
89 107 29 0 
89 107 30 0 
89 107 31 0 
89 107 32 0 
90 108 17 0 
90 108 18 0 
90 108 19 0 
90 108 20 0 
90 108 21 0 
90 108 22 0 
90 108 23 0 
90 108 24 0 
90 108 25 0 
90 108 26 0 
90 108 27 0 
90 108 28 0 
90 108 29 0 
90 108 30 0 
90 108 31 0 
90 108 32 0 
91 109 17 0 
91 109 18 0 
91 109 19 0 
91 109 20 0 
91 109 21 0 
91 109 22 0 
91 109 23 0 
91 109 24 0 
91 109 25 0 
91 109 26 0 
91 109 27 0 
91 109 28 0 
91 109 29 0 
91 109 30 0 
91 109 31 0 
91 109 32 0 
92 110 17 0 
92 110 18 0 
92 110 19 0 
92 110 20 0 
92 110 21 0 
92 110 22 0 
92 110 23 0 
92 110 24 0 
92 110 25 0 
92 110 26 0 
92 110 27 0 
92 110 28 0 
92 110 29 0 
92 110 30 0 
92 110 31 0 
92 110 32 0 
93 111 17 0 
93 111 18 0 
93 111 19 0 
93 111 20 0 
93 111 21 0 
93 111 22 0 
93 111 23 0 
93 111 24 0 
93 111 25 0 
93 111 26 0 
93 111 27 0 
93 111 28 0 
93 111 29 0 
93 111 30 0 
93 111 31 0 
93 111 32 0 
94 112 17 0 
94 112 18 0 
94 112 19 0 
94 112 20 0 
94 112 21 0 
94 112 22 0 
94 112 23 0 
94 112 24 0 
94 112 25 0 
94 112 26 0 
94 112 27 0 
94 112 28 0 
94 112 29 0 
94 112 30 0 
94 112 31 0 
94 112 32 0 
95 113 17 0 
95 113 18 0 
95 113 19 0 
95 113 20 0 
95 113 21 0 
95 113 22 0 
95 113 23 0 
95 113 24 0 
95 113 25 0 
95 113 26 0 
95 113 27 0 
95 113 28 0 
95 113 29 0 
95 113 30 0 
95 113 31 0 
95 113 32 0 
96 114 17 0 
96 114 18 0 
96 114 19 0 
96 114 20 0 
96 114 21 0 
96 114 22 0 
96 114 23 0 
96 114 24 0 
96 114 25 0 
96 114 26 0 
96 114 27 0 
96 114 28 0 
96 114 29 0 
96 114 30 0 
96 114 31 0 
96 114 32 0 
97 115 17 0 
97 115 18 0 
97 115 19 0 
97 115 20 0 
97 115 21 0 
97 115 22 0 
97 115 23 0 
97 115 24 0 
97 115 25 0 
97 115 26 0 
97 115 27 0 
97 115 28 0 
97 115 29 0 
97 115 30 0 
97 115 31 0 
97 115 32 0 
98 116 17 0 
98 116 18 0 
98 116 19 0 
98 116 20 0 
98 116 21 0 
98 116 22 0 
98 116 23 0 
98 116 24 0 
98 116 25 0 
98 116 26 0 
98 116 27 0 
98 116 28 0 
98 116 29 0 
98 116 30 0 
98 116 31 0 
98 116 32 0 
99 117 17 0 
99 117 18 0 
99 117 19 0 
99 117 20 0 
99 117 21 0 
99 117 22 0 
99 117 23 0 
99 117 24 0 
99 117 25 0 
99 117 26 0 
99 117 27 0 
99 117 28 0 
99 117 29 0 
99 117 30 0 
99 117 31 0 
99 117 32 0 
100 118 17 0 
100 118 18 0 
100 118 19 0 
100 118 20 0 
100 118 21 0 
100 118 22 0 
100 118 23 0 
100 118 24 0 
100 118 25 0 
100 118 26 0 
100 118 27 0 
100 118 28 0 
100 118 29 0 
100 118 30 0 
100 118 31 0 
100 118 32 0 
101 119 33 0 
101 119 34 0 
101 119 35 0 
101 119 36 0 
101 119 37 0 
101 119 38 0 
101 119 39 0 
101 119 40 0 
101 119 41 0 
101 119 42 0 
101 119 43 0 
101 119 44 0 
101 119 45 0 
101 119 46 0 
101 119 47 0 
101 119 48 0 
102 120 33 0 
102 120 34 0 
102 120 35 0 
102 120 36 0 
102 120 37 0 
102 120 38 0 
102 120 39 0 
102 120 40 0 
102 120 41 0 
102 120 42 0 
102 120 43 0 
102 120 44 0 
102 120 45 0 
102 120 46 0 
102 120 47 0 
102 120 48 0 
103 121 33 0 
103 121 34 0 
103 121 35 0 
103 121 36 0 
103 121 37 0 
103 121 38 0 
103 121 39 0 
103 121 40 0 
103 121 41 0 
103 121 42 0 
103 121 43 0 
103 121 44 0 
103 121 45 0 
103 121 46 0 
103 121 47 0 
103 121 48 0 
104 122 33 0 
104 122 34 0 
104 122 35 0 
104 122 36 0 
104 122 37 0 
104 122 38 0 
104 122 39 0 
104 122 40 0 
104 122 41 0 
104 122 42 0 
104 122 43 0 
104 122 44 0 
104 122 45 0 
104 122 46 0 
104 122 47 0 
104 122 48 0 
105 123 33 0 
105 123 34 0 
105 123 35 0 
105 123 36 0 
105 123 37 0 
105 123 38 0 
105 123 39 0 
105 123 40 0 
105 123 41 0 
105 123 42 0 
105 123 43 0 
105 123 44 0 
105 123 45 0 
105 123 46 0 
105 123 47 0 
105 123 48 0 
106 124 33 0 
106 124 34 0 
106 124 35 0 
106 124 36 0 
106 124 37 0 
106 124 38 0 
106 124 39 0 
106 124 40 0 
106 124 41 0 
106 124 42 0 
106 124 43 0 
106 124 44 0 
106 124 45 0 
106 124 46 0 
106 124 47 0 
106 124 48 0 
107 125 33 0 
107 125 34 0 
107 125 35 0 
107 125 36 0 
107 125 37 0 
107 125 38 0 
107 125 39 0 
107 125 40 0 
107 125 41 0 
107 125 42 0 
107 125 43 0 
107 125 44 0 
107 125 45 0 
107 125 46 0 
107 125 47 0 
107 125 48 0 
108 126 33 0 
108 126 34 0 
108 126 35 0 
108 126 36 0 
108 126 37 0 
108 126 38 0 
108 126 39 0 
108 126 40 0 
108 126 41 0 
108 126 42 0 
108 126 43 0 
108 126 44 0 
108 126 45 0 
108 126 46 0 
108 126 47 0 
108 126 48 0 
109 127 33 0 
109 127 34 0 
109 127 35 0 
109 127 36 0 
109 127 37 0 
109 127 38 0 
109 127 39 0 
109 127 40 0 
109 127 41 0 
109 127 42 0 
109 127 43 0 
109 127 44 0 
109 127 45 0 
109 127 46 0 
109 127 47 0 
109 127 48 0 
110 128 33 0 
110 128 34 0 
110 128 35 0 
110 128 36 0 
110 128 37 0 
110 128 38 0 
110 128 39 0 
110 128 40 0 
110 128 41 0 
110 128 42 0 
110 128 43 0 
110 128 44 0 
110 128 45 0 
110 128 46 0 
110 128 47 0 
110 128 48 0 
111 129 33 0 
111 129 34 0 
111 129 35 0 
111 129 36 0 
111 129 37 0 
111 129 38 0 
111 129 39 0 
111 129 40 0 
111 129 41 0 
111 129 42 0 
111 129 43 0 
111 129 44 0 
111 129 45 0 
111 129 46 0 
111 129 47 0 
111 129 48 0 
112 130 33 0 
112 130 34 0 
112 130 35 0 
112 130 36 0 
112 130 37 0 
112 130 38 0 
112 130 39 0 
112 130 40 0 
112 130 41 0 
112 130 42 0 
112 130 43 0 
112 130 44 0 
112 130 45 0 
112 130 46 0 
112 130 47 0 
112 130 48 0 
113 131 33 0 
113 131 34 0 
113 131 35 0 
113 131 36 0 
113 131 37 0 
113 131 38 0 
113 131 39 0 
113 131 40 0 
113 131 41 0 
113 131 42 0 
113 131 43 0 
113 131 44 0 
113 131 45 0 
113 131 46 0 
113 131 47 0 
113 131 48 0 
114 132 33 0 
114 132 34 0 
114 132 35 0 
114 132 36 0 
114 132 37 0 
114 132 38 0 
114 132 39 0 
114 132 40 0 
114 132 41 0 
114 132 42 0 
114 132 43 0 
114 132 44 0 
114 132 45 0 
114 132 46 0 
114 132 47 0 
114 132 48 0 
115 133 33 0 
115 133 34 0 
115 133 35 0 
115 133 36 0 
115 133 37 0 
115 133 38 0 
115 133 39 0 
115 133 40 0 
115 133 41 0 
115 133 42 0 
115 133 43 0 
115 133 44 0 
115 133 45 0 
115 133 46 0 
115 133 47 0 
115 133 48 0 
116 134 33 0 
116 134 34 0 
116 134 35 0 
116 134 36 0 
116 134 37 0 
116 134 38 0 
116 134 39 0 
116 134 40 0 
116 134 41 0 
116 134 42 0 
116 134 43 0 
116 134 44 0 
116 134 45 0 
116 134 46 0 
116 134 47 0 
116 134 48 0 
117 135 33 0 
117 135 34 0 
117 135 35 0 
117 135 36 0 
117 135 37 0 
117 135 38 0 
117 135 39 0 
117 135 40 0 
117 135 41 0 
117 135 42 0 
117 135 43 0 
117 135 44 0 
117 135 45 0 
117 135 46 0 
117 135 47 0 
117 135 48 0 
118 136 33 0 
118 136 34 0 
118 136 35 0 
118 136 36 0 
118 136 37 0 
118 136 38 0 
118 136 39 0 
118 136 40 0 
118 136 41 0 
118 136 42 0 
118 136 43 0 
118 136 44 0 
118 136 45 0 
118 136 46 0 
118 136 47 0 
118 136 48 0 
119 137 49 0 
119 137 50 0 
119 137 51 0 
119 137 52 0 
119 137 53 0 
119 137 54 0 
119 137 55 0 
119 137 56 0 
119 137 57 0 
119 137 58 0 
119 137 59 0 
119 137 60 0 
119 137 61 0 
119 137 62 0 
119 137 63 0 
119 137 64 0 
120 138 49 0 
120 138 50 0 
120 138 51 0 
120 138 52 0 
120 138 53 0 
120 138 54 0 
120 138 55 0 
120 138 56 0 
120 138 57 0 
120 138 58 0 
120 138 59 0 
120 138 60 0 
120 138 61 0 
120 138 62 0 
120 138 63 0 
120 138 64 0 
121 139 49 0 
121 139 50 0 
121 139 51 0 
121 139 52 0 
121 139 53 0 
121 139 54 0 
121 139 55 0 
121 139 56 0 
121 139 57 0 
121 139 58 0 
121 139 59 0 
121 139 60 0 
121 139 61 0 
121 139 62 0 
121 139 63 0 
121 139 64 0 
122 140 49 0 
122 140 50 0 
122 140 51 0 
122 140 52 0 
122 140 53 0 
122 140 54 0 
122 140 55 0 
122 140 56 0 
122 140 57 0 
122 140 58 0 
122 140 59 0 
122 140 60 0 
122 140 61 0 
122 140 62 0 
122 140 63 0 
122 140 64 0 
123 141 49 0 
123 141 50 0 
123 141 51 0 
123 141 52 0 
123 141 53 0 
123 141 54 0 
123 141 55 0 
123 141 56 0 
123 141 57 0 
123 141 58 0 
123 141 59 0 
123 141 60 0 
123 141 61 0 
123 141 62 0 
123 141 63 0 
123 141 64 0 
124 142 49 0 
124 142 50 0 
124 142 51 0 
124 142 52 0 
124 142 53 0 
124 142 54 0 
124 142 55 0 
124 142 56 0 
124 142 57 0 
124 142 58 0 
124 142 59 0 
124 142 60 0 
124 142 61 0 
124 142 62 0 
124 142 63 0 
124 142 64 0 
125 143 49 0 
125 143 50 0 
125 143 51 0 
125 143 52 0 
125 143 53 0 
125 143 54 0 
125 143 55 0 
125 143 56 0 
125 143 57 0 
125 143 58 0 
125 143 59 0 
125 143 60 0 
125 143 61 0 
125 143 62 0 
125 143 63 0 
125 143 64 0 
126 144 49 0 
126 144 50 0 
126 144 51 0 
126 144 52 0 
126 144 53 0 
126 144 54 0 
126 144 55 0 
126 144 56 0 
126 144 57 0 
126 144 58 0 
126 144 59 0 
126 144 60 0 
126 144 61 0 
126 144 62 0 
126 144 63 0 
126 144 64 0 
127 145 49 0 
127 145 50 0 
127 145 51 0 
127 145 52 0 
127 145 53 0 
127 145 54 0 
127 145 55 0 
127 145 56 0 
127 145 57 0 
127 145 58 0 
127 145 59 0 
127 145 60 0 
127 145 61 0 
127 145 62 0 
127 145 63 0 
127 145 64 0 
128 146 49 0 
128 146 50 0 
128 146 51 0 
128 146 52 0 
128 146 53 0 
128 146 54 0 
128 146 55 0 
128 146 56 0 
128 146 57 0 
128 146 58 0 
128 146 59 0 
128 146 60 0 
128 146 61 0 
128 146 62 0 
128 146 63 0 
128 146 64 0 
129 147 49 0 
129 147 50 0 
129 147 51 0 
129 147 52 0 
129 147 53 0 
129 147 54 0 
129 147 55 0 
129 147 56 0 
129 147 57 0 
129 147 58 0 
129 147 59 0 
129 147 60 0 
129 147 61 0 
129 147 62 0 
129 147 63 0 
129 147 64 0 
130 148 49 0 
130 148 50 0 
130 148 51 0 
130 148 52 0 
130 148 53 0 
130 148 54 0 
130 148 55 0 
130 148 56 0 
130 148 57 0 
130 148 58 0 
130 148 59 0 
130 148 60 0 
130 148 61 0 
130 148 62 0 
130 148 63 0 
130 148 64 0 
131 149 49 0 
131 149 50 0 
131 149 51 0 
131 149 52 0 
131 149 53 0 
131 149 54 0 
131 149 55 0 
131 149 56 0 
131 149 57 0 
131 149 58 0 
131 149 59 0 
131 149 60 0 
131 149 61 0 
131 149 62 0 
131 149 63 0 
131 149 64 0 
132 150 49 0 
132 150 50 0 
132 150 51 0 
132 150 52 0 
132 150 53 0 
132 150 54 0 
132 150 55 0 
132 150 56 0 
132 150 57 0 
132 150 58 0 
132 150 59 0 
132 150 60 0 
132 150 61 0 
132 150 62 0 
132 150 63 0 
132 150 64 0 
133 151 49 0 
133 151 50 0 
133 151 51 0 
133 151 52 0 
133 151 53 0 
133 151 54 0 
133 151 55 0 
133 151 56 0 
133 151 57 0 
133 151 58 0 
133 151 59 0 
133 151 60 0 
133 151 61 0 
133 151 62 0 
133 151 63 0 
133 151 64 0 
134 152 49 0 
134 152 50 0 
134 152 51 0 
134 152 52 0 
134 152 53 0 
134 152 54 0 
134 152 55 0 
134 152 56 0 
134 152 57 0 
134 152 58 0 
134 152 59 0 
134 152 60 0 
134 152 61 0 
134 152 62 0 
134 152 63 0 
134 152 64 0 
135 153 49 0 
135 153 50 0 
135 153 51 0 
135 153 52 0 
135 153 53 0 
135 153 54 0 
135 153 55 0 
135 153 56 0 
135 153 57 0 
135 153 58 0 
135 153 59 0 
135 153 60 0 
135 153 61 0 
135 153 62 0 
135 153 63 0 
135 153 64 0 
136 154 49 0 
136 154 50 0 
136 154 51 0 
136 154 52 0 
136 154 53 0 
136 154 54 0 
136 154 55 0 
136 154 56 0 
136 154 57 0 
136 154 58 0 
136 154 59 0 
136 154 60 0 
136 154 61 0 
136 154 62 0 
136 154 63 0 
136 154 64 0 
78 67 0 
72 70 0 
78 70 0 
75 73 0 
69 73 0 
81 76 0 
72 76 0 
69 79 0 
66 79 0 
75 82 0 
96 85 0 
90 88 0 
96 88 0 
93 91 0 
87 91 0 
99 94 0 
90 94 0 
87 97 0 
84 97 0 
93 100 0 
114 103 0 
108 106 0 
114 106 0 
111 109 0 
105 109 0 
117 112 0 
108 112 0 
105 115 0 
102 115 0 
111 118 0 
132 121 0 
126 124 0 
132 124 0 
129 127 0 
123 127 0 
135 130 0 
126 130 0 
123 133 0 
120 133 0 
129 136 0 
